NAME : mini-n23-k5
COMMENT : Instância média CVRP para teste rápido >>CRIADA PELOS ALUNOS<<
TYPE : CVRP
DIMENSION : 23
EDGE_WEIGHT_TYPE : EUC_2D
CAPACITY : 90
NODE_COORD_SECTION
1 40 40
2 42 45
3 46 48
4 49 50
5 53 53
6 56 55
7 59 57
8 63 59
9 67 60
10 70 58
11 73 55
12 75 52
13 78 49
14 80 46
15 82 42
16 78 40
17 74 38
18 70 37
19 66 36
20 60 35
21 55 34
22 50 33
23 45 35
DEMAND_SECTION
1 0
2 6
3 12
4 10
5 14
6 18
7 7
8 10
9 20
10 8
11 9
12 17
13 14
14 11
15 6
16 16
17 12
18 10
19 15
20 14
21 8
22 11
23 7
DEPOT_SECTION
1
-1
EOF
